NAME : eil101.out.tour
COMMENT : Tour for eil101.tsp (739)
TYPE: TOUR
DIMENSION: 101
TOUR_SELECTION
27
96
92
59
99
93
91
85
100
37
98
95
94
6
89
13
97
87
2
57
15
43
42
44
14
38
86
16
61
5
84
17
83
60
18
8
45
46
82
7
88
31
70
30
20
51
9
65
35
71
66
32
90
10
62
63
48
19
11
47
36
49
64
52
69
1
50
76
26
53
101
58
40
21
73
72
4
74
22
41
75
56
23
39
67
25
55
54
24
29
34
78
81
33
79
3
77
68
80
12
28
-1
EOF
